20150813 10 0 0 0
20140616 20 0 0 0
20130705 20 0 0 0
20120628 0 10000 0 0
20110426 70 0 0 0
20100708 100 10000 0 0
20090714 60 0 0 0
20080716 100 0 0 0
20070703 350 0 0 0
20060706 0 3000 0 0
20040622 25 3000 0 0
20030619 250 0 0 0
20020612 200 0 0 0
